0  500 500
1  731 587
2  101 29
3  249 645
4  230 56
5  986 130
6  66  859
7  389 311
8  586 672
9  787 726
10 544 949
11 13  154
12 191 859
13 703 639
14 122 503
15 187 910
16 582 916
17 653 995
18 898 742
19 730 148
20 53  545
21 150 458
22 70  293
23 970 112
24 540 301
25 986 233
26 969 86
27 445 721
28 349 459
29 675 127
30 109 816
31 371 141
32 413 541
33 189 473
34 470 231
35 837 517
36 57  143
37 872 328
38 988 471
39 76  142
40 793 758
41 625 780
42 311 542
43 755 356
44 107 474
45 72  276
46 710 225
47 997 678
48 474 250
49 775 632
50 220 850
51 330 818
52 73  106
53 582 689
54 483 99
55 264 821
56 152 700
57 929 976
58 901 783
59 983 421
60 316 189
61 866 396
62 179 848
63 457 154
64 502 772
65 521 260
66 164 787
67 378 5
68 25  507
69 919 420
70 414 761
71 799 421